101290
78,41,52,39,63,4,50,65,18,37,13,54,46,45,73,64,1,10,29,80,62,70,14,67,76,26,36,66,20,77,17,74,40,11,75,82,32,58,9,71,21,48,24,31,19,5,22,44,68,59,53,83,8,28,79,6,61,15,69,25,42,55,23,12,3,43,57,34,49,47,60,81,72,51,56,7,27,33,16,38,2,30,35